c turning on binary mode checking
c parsing input formula with 259840 variables and 1039924 clauses
c finished parsing, read 23088170 bytes from proof file
c detected empty clause; start verification via backward checking
c 6074 of 1039924 clauses in core                            
c 6848 of 607670 lemmas in core using 34474 resolution steps
c 0 RAT lemmas in core; 228 redundant literals in core lemmas
s VERIFIED
c verification time: 2.608 seconds
